
  12    4
  10   10   10   10

   0   0   0   0   0   2 2 3 
  10  10  10  10  10   4 11 7 5 4 
   8  10  10  10  10   4 10 7 6 5 
   7  10  10  10  10   3 10 8 6 
   1  10  10  10  10   2 9 8 
   3  10  10  10  10   1 9 
   9  10  10  10  10   1 8 
  10  10  10  10  10   1 12
   2  10  10  10  10   1 12
   6  10  10  10  10   1 12
   3  10  10  10  10   1 12
   0   0   0   0   0   0 
